RT is False
Default write of storage_offers_DA.csv just to have a file (but constraint should be inactive)
Reading model...
...model read.
creating competitive generators file...
...competitive generators recorded.
Loading data...
.. day-ahead data with real-time VRE data read.
Compiling instance...
...instance created.
Creating Offer Mitigation (model will solve as dispatch if TRUE)...
NOTE: storage offers will not be mitigated
...storage offer mitigation file created
Converting model to MPEC...
...converted
NOTE: initial MIP solve with only storage competitive to get feasible solution
Solving...

Welcome to IBM(R) ILOG(R) CPLEX(R) Interactive Optimizer 12.8.0.0
  with Simplex, Mixed Integer & Barrier Optimizers
5725-A06 5725-A29 5724-Y48 5724-Y49 5724-Y54 5724-Y55 5655-Y21
Copyright IBM Corp. 1988, 2017.  All Rights Reserved.

Type 'help' for a list of available commands.
Type 'help' followed by a command name for more
information on commands.

CPLEX> Logfile 'cplex.log' closed.
Logfile 'C:\Users\llavi\Desktop\test919\logs\tmp35sgs0v_.cplex.log' open.
CPLEX> New value for parallel optimization mode: -1
CPLEX> New value for mixed integer optimality gap tolerance: 0.01
CPLEX> New value for integrality tolerance: 1e-09
CPLEX> New value for feasibility tolerance: 0.01
CPLEX> New value for deterministic time limit in ticks: 75000
CPLEX> Problem 'C:\Users\llavi\Desktop\test919\logs\tmpjotbd97w.pyomo.lp' read.
Read time = 0.30 sec. (13.50 ticks)
CPLEX> Problem name         : C:\Users\llavi\Desktop\test919\logs\tmpjotbd97w.pyomo.lp
Objective sense      : Maximize
Variables            :   54021  [Nneg: 1,  Box: 22008,  Free: 4464,
                                 Binary: 27548]
Objective nonzeros   :    8973
Linear constraints   :  123829  [Less: 41554,  Greater: 59512,  Equal: 22763]
  Nonzeros           :  300586
  RHS nonzeros       :   67894

Variables            : Min LB: -5000.000        Max UB: 1000000.       
Objective nonzeros   : Min   : 0.008333333      Max   : 831.1750       
Linear constraints   :
  Nonzeros           : Min   : 0.001000000      Max   : 1000000.       
  RHS nonzeros       : Min   : 0.008333333      Max   : 1000000.       
CPLEX> CPXPARAM_Simplex_Tolerances_Feasibility          0.01
CPXPARAM_Parallel                                -1
CPXPARAM_DetTimeLimit                            75000
CPXPARAM_MIP_Tolerances_MIPGap                   0.01
CPXPARAM_MIP_Tolerances_Integrality              1.0000000000000001e-09
Tried aggregator 3 times.
MIP Presolve eliminated 89291 rows and 19180 columns.
MIP Presolve added 3392 rows and 0 columns.
MIP Presolve modified 23847 coefficients.
Aggregator did 13059 substitutions.
Reduced MIP has 24871 rows, 21223 columns, and 71006 nonzeros.
Reduced MIP has 8401 binaries, 0 generals, 0 SOSs, and 0 indicators.
Presolve time = 0.31 sec. (167.21 ticks)
Probing fixed 397 vars, tightened 2831 bounds.
Probing time = 3.22 sec. (886.34 ticks)
Tried aggregator 2 times.
MIP Presolve eliminated 894 rows and 795 columns.
MIP Presolve modified 2183 coefficients.
Aggregator did 42 substitutions.
Reduced MIP has 23935 rows, 20386 columns, and 68292 nonzeros.
Reduced MIP has 8004 binaries, 0 generals, 0 SOSs, and 0 indicators.
Presolve time = 0.13 sec. (56.02 ticks)
Probing time = 0.06 sec. (15.10 ticks)
Clique table members: 6446.
MIP emphasis: balance optimality and feasibility.
MIP search method: dynamic search.
Parallel mode: opportunistic, using up to 4 threads.
Root relaxation solution time = 0.50 sec. (438.28 ticks)

        Nodes                                         Cuts/
   Node  Left     Objective  IInf  Best Integer    Best Bound    ItCnt     Gap

      0     0     2914.3552   673                   2914.3552     2943         
*     0     0      integral     0     2914.3552     2914.3552     2943    0.00%
Elapsed time = 7.42 sec. (2750.11 ticks, tree = 0.01 MB, solutions = 1)

Root node processing (before b&c):
  Real time             =    7.44 sec. (2752.39 ticks)
Parallel b&c, 4 threads:
  Real time             =    0.00 sec. (0.00 ticks)
  Sync time (average)   =    0.00 sec.
  Wait time (average)   =    0.00 sec.
                          ------------
Total (root+branch&cut) =    7.44 sec. (2752.39 ticks)

Solution pool: 1 solution saved.

MIP - Integer optimal solution:  Objective =  2.9143551800e+03
Solution time =    7.45 sec.  Iterations = 2943  Nodes = 0
Deterministic time = 2752.54 ticks  (369.32 ticks/sec)

CPLEX> Incumbent solution written to file 'C:\Users\llavi\Desktop\test919\logs\tmp3ho3a50j.cplex.sol'.
CPLEX> NOTE: no warmstart specified for MIP iteration, default behavior is true
NOTE: resolving with all competitive generators using storage-only solution to warmstart
Solving...

Welcome to IBM(R) ILOG(R) CPLEX(R) Interactive Optimizer 12.8.0.0
  with Simplex, Mixed Integer & Barrier Optimizers
5725-A06 5725-A29 5724-Y48 5724-Y49 5724-Y54 5724-Y55 5655-Y21
Copyright IBM Corp. 1988, 2017.  All Rights Reserved.

Type 'help' for a list of available commands.
Type 'help' followed by a command name for more
information on commands.

CPLEX> Logfile 'cplex.log' closed.
Logfile 'C:\Users\llavi\Desktop\test919\logs\tmpdbf5k48w.cplex.log' open.
CPLEX> New value for parallel optimization mode: -1
CPLEX> New value for mixed integer optimality gap tolerance: 0.01
CPLEX> New value for integrality tolerance: 1e-09
CPLEX> New value for feasibility tolerance: 0.01
CPLEX> New value for deterministic time limit in ticks: 75000
CPLEX> Problem 'C:\Users\llavi\Desktop\test919\logs\tmphb2vu7fn.pyomo.lp' read.
Read time = 0.27 sec. (13.52 ticks)
CPLEX> MIP start file 'C:\Users\llavi\Desktop\test919\logs\tmpww3hbstn.cplex.mst' read.
CPLEX> Problem name         : C:\Users\llavi\Desktop\test919\logs\tmphb2vu7fn.pyomo.lp
Objective sense      : Maximize
Variables            :   54741  [Nneg: 1,  Box: 22728,  Free: 4464,
                                 Binary: 27548]
Objective nonzeros   :    9693
Linear constraints   :  123829  [Less: 41554,  Greater: 59512,  Equal: 22763]
  Nonzeros           :  300586
  RHS nonzeros       :   67894

Variables            : Min LB: -5000.000        Max UB: 1000000.       
Objective nonzeros   : Min   : 0.008333333      Max   : 831.1750       
Linear constraints   :
  Nonzeros           : Min   : 0.001000000      Max   : 1000000.       
  RHS nonzeros       : Min   : 0.008333333      Max   : 1000000.       
CPLEX> CPXPARAM_Simplex_Tolerances_Feasibility          0.01
CPXPARAM_Parallel                                -1
CPXPARAM_DetTimeLimit                            75000
CPXPARAM_MIP_Tolerances_MIPGap                   0.01
CPXPARAM_MIP_Tolerances_Integrality              1.0000000000000001e-09
1 of 1 MIP starts provided solutions.
MIP start 'm1' defined initial solution with objective 2914.3552.
Tried aggregator 3 times.
MIP Presolve eliminated 89291 rows and 19900 columns.
MIP Presolve added 3392 rows and 0 columns.
MIP Presolve modified 23847 coefficients.
Aggregator did 13059 substitutions.
Reduced MIP has 24871 rows, 21223 columns, and 71006 nonzeros.
Reduced MIP has 8401 binaries, 0 generals, 0 SOSs, and 0 indicators.
Presolve time = 0.30 sec. (167.57 ticks)
Probing fixed 397 vars, tightened 2831 bounds.
Probing time = 3.17 sec. (886.34 ticks)
Tried aggregator 2 times.
MIP Presolve eliminated 894 rows and 795 columns.
MIP Presolve modified 2183 coefficients.
Aggregator did 42 substitutions.
Reduced MIP has 23935 rows, 20386 columns, and 68292 nonzeros.
Reduced MIP has 8004 binaries, 0 generals, 0 SOSs, and 0 indicators.
Presolve time = 0.13 sec. (56.02 ticks)
Probing time = 0.05 sec. (15.39 ticks)
Clique table members: 6458.
MIP emphasis: balance optimality and feasibility.
MIP search method: dynamic search.
Parallel mode: opportunistic, using up to 4 threads.
Root relaxation solution time = 0.38 sec. (177.54 ticks)

        Nodes                                         Cuts/
   Node  Left     Objective  IInf  Best Integer    Best Bound    ItCnt     Gap

*     0+    0                         2914.3552   5.13425e+07              --- 
      0     0        cutoff           2914.3552                   2971     --- 

Root node processing (before b&c):
  Real time             =   10.42 sec. (3742.66 ticks)
Parallel b&c, 4 threads:
  Real time             =    0.00 sec. (0.00 ticks)
  Sync time (average)   =    0.00 sec.
  Wait time (average)   =    0.00 sec.
                          ------------
Total (root+branch&cut) =   10.42 sec. (3742.66 ticks)

Solution pool: 1 solution saved.

MIP - Integer optimal solution:  Objective =  2.9143551800e+03
Solution time =   10.42 sec.  Iterations = 2971  Nodes = 0
Deterministic time = 3742.82 ticks  (359.13 ticks/sec)

CPLEX> Incumbent solution written to file 'C:\Users\llavi\Desktop\test919\logs\tmppwew5q5b.cplex.sol'.
CPLEX> Exporting results... 
